x_1
x_2
x_3
x_4
x_5
x_6
x_7
x_8
x_9
x_10
x_11
x_12
x_13
x_14
x_15
x_16
x_17
x_18
x_19
x_20
x_3 x_1
x_5 x_3
x_5 x_4
x_6 x_4
x_7 x_2
x_7 x_5
x_7 x_6
x_8 x_1
x_8 x_3
x_8 x_4
x_9 x_2
x_9 x_3
x_9 x_4
x_9 x_6
x_9 x_7
x_10 x_2
x_10 x_3
x_10 x_6
x_10 x_7
x_10 x_8
x_10 x_9
x_11 x_1
x_11 x_7
x_11 x_8
x_11 x_9
x_12 x_1
x_12 x_2
x_12 x_3
x_12 x_5
x_12 x_8
x_12 x_10
x_13 x_4
x_13 x_5
x_13 x_8
x_13 x_10
x_14 x_1
x_14 x_4
x_14 x_5
x_14 x_7
x_14 x_13
x_15 x_1
x_15 x_5
x_15 x_6
x_15 x_7
x_15 x_8
x_15 x_9
x_15 x_11
x_15 x_12
x_15 x_13
x_15 x_14
x_16 x_1
x_16 x_4
x_16 x_5
x_16 x_7
x_16 x_11
x_16 x_13
x_17 x_1
x_17 x_2
x_17 x_3
x_17 x_8
x_17 x_10
x_17 x_12
x_17 x_13
x_17 x_14
x_17 x_15
x_17 x_16
x_18 x_1
x_18 x_4
x_18 x_5
x_18 x_6
x_18 x_8
x_18 x_9
x_18 x_11
x_18 x_14
x_18 x_15
x_18 x_17
x_19 x_1
x_19 x_4
x_19 x_5
x_19 x_6
x_19 x_10
x_19 x_11
x_19 x_13
x_19 x_18
x_20 x_1
x_20 x_4
x_20 x_5
x_20 x_6
x_20 x_10
x_20 x_11
x_20 x_12
x_20 x_15
x_20 x_17
x_20 x_18
x_20 x_19
